2-dimensional/CL_08_25_06.vbp
2
150 150 
25
79 32 30
43 68 72
53 63 4
45 70 88
65 46 54
23 95 64
97 19 90
91 25 26
77 38 94
73 39 28
42 75 72
56 62 49
53 60 54
77 37 19
40 77 28
38 72 61
38 78 84
28 83 23
28 85 67
82 32 53
21 89 54
23 88 16
52 65 9
99 17 54
22 92 77
