datasets/2-dimensional/CL_08_25_06.txt
150 150 
0 30 79 32 
1 72 43 68 
2 4 53 63 
3 88 45 70 
4 54 65 46 
5 64 23 95 
6 90 97 19 
7 26 91 25 
8 94 77 38 
9 28 73 39 
10 72 42 75 
11 49 56 62 
12 54 53 60 
13 19 77 37 
14 28 40 77 
15 61 38 72 
16 84 38 78 
17 23 28 83 
18 67 28 85 
19 53 82 32 
20 54 21 89 
21 16 23 88 
22 9 52 65 
23 54 99 17 
24 77 22 92 
